(set-logic ALL)
(declare-const GEN1 Int)
(declare-const GEN2 Real)
(declare-const GEN3 Int)
(declare-const GEN4 Real)
(declare-const GEN5 Int)
(declare-const GEN6 Real)
(declare-const GEN7 Int)
(declare-const GEN8 Real)
(declare-const BAV9 Bool)
(declare-const BAV10 Bool)
(declare-const BAV11 Bool)
(declare-const BAV12 Bool)
(declare-fun x () Real)
(assert (> (sin GEN1) GEN2))
(assert (< (sin GEN3) GEN4))
(assert (< (- x (sin GEN5)) GEN6))
(assert (< (- (sin GEN7) x) GEN8))
(assert (= BAV9 (> (sin GEN1) GEN2)))
(assert (= BAV10 (< (sin GEN3) GEN4)))
(assert (= BAV11 (< (- x (sin GEN5)) GEN6)))
(assert (= BAV12 (< (- (sin GEN7) x) GEN8)))
(check-sat)
(get-model)